ClassProblems/AMPL/IMM-conference-rooms.txt
for {1..1} {
solve;
display x, d1, d2;
}

